          7 53976

  0 84 12  0 26 91 11
 84  0 35 82 26 69 56
 12 35  0 86 45 91 59
  0 82 86  0 18 76 39
 26 26 45 18  0 18 57
 91 69 91 76 18  0 36
 11 56 59 39 57 36  0

  0 21 95 82 56 41  6
 21  0 25 10  4 63  6
 95 25  0 44 40 75 79
 82 10 44  0  0 89 35
 56  4 40  0  0  9  1
 41 63 75 89  9  0 85
  6  6 79 35  1 85  0
